\* Source Pyomo model name=unknown *\

min 
x455:
+350 x133
+350 x134
+350 x135
+350 x136
+350 x137
+350 x138
+350 x139
+350 x140
+350 x141
+350 x142
+350 x143
+350 x144
+350 x145
+350 x146
+350 x147
+350 x148
+350 x149
+350 x150
+350 x151
+350 x152
+350 x153
+350 x154
+350 x155
+350 x156
+350 x157
+350 x158
+350 x159
+350 x160
+350 x161
+350 x162
+350 x163
+350 x164
+350 x165
+350 x166
+350 x167
+350 x168
+350 x169
+350 x170
+350 x171
+350 x172
+350 x173
+350 x174
+350 x175
+350 x176
+350 x177
+350 x178
+350 x179
+350 x180
+350 x181
+350 x182
+350 x183
+350 x184
+350 x185
+350 x186
+350 x187
+350 x188
+350 x189
+350 x190
+350 x191
+350 x192
+350 x193
+350 x194
+350 x195
+350 x196
+350 x197
+350 x198
+8210 x34
+8210 x35
+8210 x36
+8210 x37
+8210 x38
+8210 x39
+8210 x40
+8210 x41
+8210 x42
+8210 x43
+8210 x44
+8210 x45
+8210 x46
+8210 x47
+8210 x48
+99999900 x49
+99999900 x50
+9280 x51
+9280 x52
+9280 x53
+9280 x54
+9280 x55
+8210 x56
+9280 x57
+8210 x58
+8210 x59
+8210 x60
+8210 x61
+8210 x62
+8210 x63
+8210 x64
+8210 x65
+8210 x66
-4420 x67
-4420 x68
-4420 x69
-4420 x70
-4420 x71
-4420 x72
-4420 x73
-4420 x74
-4420 x75
-4420 x76
-4420 x77
-4420 x78
-4420 x79
-4420 x80
-4420 x81
+99999900 x82
+99999900 x83
-1340 x84
-1340 x85
-1340 x86
-1340 x87
-1340 x88
-4420 x89
-1340 x90
-4420 x91
-4420 x92
-4420 x93
-4420 x94
-4420 x95
-4420 x96
-4420 x97
-4420 x98
-4420 x99

s.t.

c_e_x456_:
+1 x1
+1 x12
-1 x199
+1 x23
-1 x233
-1 x244
-1 x255
+1 x28
= 0

c_e_x457_:
-1 x207
-1 x260
-1 x261
-1 x266
+1 x29
+1 x30
+1 x31
+1 x32
= 0

c_e_x458_:
+1 x209
+1 x262
+1 x277
+1 x365
= 0

c_e_x459_:
+1 x210
+1 x263
+1 x293
= 0

c_e_x460_:
+1 x211
+1 x264
+1 x288
= 0

c_e_x461_:
+1 x212
+1 x265
+1 x294
= 0

c_e_x462_:
+1 x2
-1 x213
-1 x234
+1 x3
+1 x33
= 0

c_e_x463_:
+1 x214
+1 x235
+1 x236
+1 x267
= 0

c_e_x464_:
+1 x215
+1 x268
+1 x295
+1 x296
+1 x366
+1 x367
= 0

c_e_x465_:
+1 x200
+1 x269
+1 x297
+1 x298
+1 x368
+1 x369
= 0

c_e_x466_:
+1 x237
+1 x238
+1 x371
+1 x373
= 0

c_e_x467_:
+1 x239
+1 x240
+1 x372
+1 x374
= 0

c_e_x468_:
-1 x201
-1 x241
-1 x270
-1 x272
+1 x4
+1 x5
+1 x6
= 0

c_e_x469_:
-1 x202
-1 x242
-1 x271
+1 x7
= 0

c_e_x470_:
+1 x10
+1 x11
+1 x13
+1 x14
-1 x203
-1 x243
-1 x245
-1 x246
-1 x247
+1 x8
+1 x9
= 0

c_e_x471_:
+1 x15
-1 x204
-1 x248
-1 x249
-1 x275
-1 x276
= 0

c_e_x472_:
+1 x250
+1 x251
+1 x281
= 0

c_e_x473_:
+1 x16
-1 x205
-1 x252
-1 x253
-1 x283
= 0

c_e_x474_:
+1 x206
+1 x254
+1 x256
+1 x282
= 0

c_e_x475_:
+1 x208
+1 x257
+1 x258
+1 x287
+1 x289
= 0

c_e_x476_:
+1 x17
-1 x259
-1 x278
-1 x279
-1 x285
-1 x286
= 0

c_e_x477_:
+1 x18
+1 x19
+1 x20
+1 x21
+1 x22
+1 x24
-1 x284
-1 x292
= 0

c_e_x478_:
+1 x25
+1 x26
+1 x27
-1 x273
-1 x274
-1 x290
-1 x291
= 0

c_e_x479_:
+1 x280
+1 x370
= 0

c_e_x480_:
+1 x100
+1 x111
+1 x122
+1 x127
-1 x216
-1 x299
-1 x310
-1 x321
= 0

c_e_x481_:
+1 x128
+1 x129
+1 x130
+1 x131
-1 x224
-1 x326
-1 x327
-1 x332
= 0

c_e_x482_:
+1 x226
+1 x328
+1 x343
+1 x375
= 0

c_e_x483_:
+1 x227
+1 x329
+1 x359
= 0

c_e_x484_:
+1 x228
+1 x330
+1 x354
= 0

c_e_x485_:
+1 x229
+1 x331
+1 x360
+ [
+1 x419 ^ 2
]
= 0

c_e_x486_:
+1 x101
+1 x102
+1 x132
-1 x230
-1 x300
= 0

c_e_x487_:
+1 x231
+1 x301
+1 x302
+1 x333
= 0

c_e_x488_:
+1 x232
+1 x334
+1 x361
+1 x362
+1 x376
+1 x377
= 0

c_e_x489_:
+1 x217
+1 x335
+1 x363
+1 x364
+1 x378
+1 x379
= 0

c_e_x490_:
+1 x303
+1 x304
+1 x381
+1 x383
= 0

c_e_x491_:
+1 x305
+1 x306
+1 x382
+1 x384
= 0

c_e_x492_:
+1 x103
+1 x104
+1 x105
-1 x218
-1 x307
-1 x336
-1 x338
= 0

c_e_x493_:
+1 x106
-1 x219
-1 x308
-1 x337
= 0

c_e_x494_:
+1 x107
+1 x108
+1 x109
+1 x110
+1 x112
+1 x113
-1 x220
-1 x309
-1 x311
-1 x312
-1 x313
= 0

c_e_x495_:
+1 x114
-1 x221
-1 x314
-1 x315
-1 x341
-1 x342
= 0

c_e_x496_:
+1 x316
+1 x317
+1 x347
= 0

c_e_x497_:
+1 x115
-1 x222
-1 x318
-1 x319
-1 x349
= 0

c_e_x498_:
+1 x223
+1 x320
+1 x322
+1 x348
= 0

c_e_x499_:
+1 x225
+1 x323
+1 x324
+1 x353
+1 x355
= 0

c_e_x500_:
+1 x116
-1 x325
-1 x344
-1 x345
-1 x351
-1 x352
= 0

c_e_x501_:
+1 x117
+1 x118
+1 x119
+1 x120
+1 x121
+1 x123
-1 x350
-1 x358
= 0

c_e_x502_:
+1 x124
+1 x125
+1 x126
-1 x339
-1 x340
-1 x356
-1 x357
= 0

c_e_x503_:
+1 x346
+1 x380
= 0

c_e_x504_:
+1 x1
-1 x34
+1 x67
= 0.16

c_e_x505_:
+1 x2
-1 x35
+1 x68
= 0.57054000000000005

c_e_x506_:
+1 x3
-1 x36
+1 x69
= 0.57054000000000005

c_e_x507_:
-1 x37
+1 x4
+1 x70
= 0.76278999999999997

c_e_x508_:
-1 x38
+1 x5
+1 x71
= 0.76278999999999997

c_e_x509_:
-1 x39
+1 x6
+1 x72
= 0.76278999999999997

c_e_x510_:
-1 x40
+1 x7
+1 x73
= 0

c_e_x511_:
-1 x41
+1 x74
+1 x8
= 0.024

c_e_x512_:
-1 x42
+1 x75
+1 x9
= 0.024

c_e_x513_:
+1 x10
-1 x43
+1 x76
= 0.024

c_e_x514_:
+1 x11
-1 x44
+1 x77
= 0.024

c_e_x515_:
+1 x12
-1 x45
+1 x78
= 0.16

c_e_x516_:
+1 x13
-1 x46
+1 x79
= 0.024

c_e_x517_:
+1 x14
-1 x47
+1 x80
= 1.55

c_e_x518_:
+1 x15
-1 x48
+1 x81
= 1.55

c_e_x519_:
+1 x16
-1 x49
+1 x82
= 4

c_e_x520_:
+1 x17
-1 x50
+1 x83
= 4

c_e_x521_:
+1 x18
-1 x51
+1 x84
= 0.5

c_e_x522_:
+1 x19
-1 x52
+1 x85
= 0.5

c_e_x523_:
+1 x20
-1 x53
+1 x86
= 0.5

c_e_x524_:
+1 x21
-1 x54
+1 x87
= 0.5

c_e_x525_:
+1 x22
-1 x55
+1 x88
= 0.5

c_e_x526_:
+1 x23
-1 x56
+1 x89
= 0.76000000000000001

c_e_x527_:
+1 x24
-1 x57
+1 x90
= 0.5

c_e_x528_:
+1 x25
-1 x58
+1 x91
= 1.55

c_e_x529_:
+1 x26
-1 x59
+1 x92
= 1.55

c_e_x530_:
+1 x27
-1 x60
+1 x93
= 3.5

c_e_x531_:
+1 x28
-1 x61
+1 x94
= 0.76000000000000001

c_e_x532_:
+1 x29
-1 x62
+1 x95
= 0.16

c_e_x533_:
+1 x30
-1 x63
+1 x96
= 0.16

c_e_x534_:
+1 x31
-1 x64
+1 x97
= 0.76000000000000001

c_e_x535_:
+1 x32
-1 x65
+1 x98
= 0.76000000000000001

c_e_x536_:
+1 x33
-1 x66
+1 x99
= 0.57054000000000005

c_e_x537_:
+1 x100
-1 x133
+1 x166
= 0.050000000000000003

c_e_x538_:
+1 x101
-1 x134
+1 x167
= 0.29999999999999999

c_e_x539_:
+1 x102
-1 x135
+1 x168
= 0.29999999999999999

c_e_x540_:
+1 x103
-1 x136
+1 x169
= 0.40000000000000002

c_e_x541_:
+1 x104
-1 x137
+1 x170
= 0.40000000000000002

c_e_x542_:
+1 x105
-1 x138
+1 x171
= 0.40000000000000002

c_e_x543_:
+1 x106
-1 x139
+1 x172
= 0.75

c_e_x544_:
+1 x107
-1 x140
+1 x173
= 0.029999999999999999

c_e_x545_:
+1 x108
-1 x141
+1 x174
= 0.029999999999999999

c_e_x546_:
+1 x109
-1 x142
+1 x175
= 0.029999999999999999

c_e_x547_:
+1 x110
-1 x143
+1 x176
= 0.029999999999999999

c_e_x548_:
+1 x111
-1 x144
+1 x177
= 0.050000000000000003

c_e_x549_:
+1 x112
-1 x145
+1 x178
= 0.029999999999999999

c_e_x550_:
+1 x113
-1 x146
+1 x179
= 0.14999999999999999

c_e_x551_:
+1 x114
-1 x147
+1 x180
= 0.14999999999999999

c_e_x552_:
+1 x115
-1 x148
+1 x181
= 0.75

c_e_x553_:
+1 x116
-1 x149
+1 x182
= 0.75

c_e_x554_:
+1 x117
-1 x150
+1 x183
= 0.029999999999999999

c_e_x555_:
+1 x118
-1 x151
+1 x184
= 0.029999999999999999

c_e_x556_:
+1 x119
-1 x152
+1 x185
= 0.029999999999999999

c_e_x557_:
+1 x120
-1 x153
+1 x186
= 0.029999999999999999

c_e_x558_:
+1 x121
-1 x154
+1 x187
= 0.029999999999999999

c_e_x559_:
+1 x122
-1 x155
+1 x188
= 0.025000000000000001

c_e_x560_:
+1 x123
-1 x156
+1 x189
= 0.029999999999999999

c_e_x561_:
+1 x124
-1 x157
+1 x190
= 0.14999999999999999

c_e_x562_:
+1 x125
-1 x158
+1 x191
= 0.14999999999999999

c_e_x563_:
+1 x126
-1 x159
+1 x192
= 0.625

c_e_x564_:
+1 x127
-1 x160
+1 x193
= 0.025000000000000001

c_e_x565_:
+1 x128
-1 x161
+1 x194
= 0.050000000000000003

c_e_x566_:
+1 x129
-1 x162
+1 x195
= 0.050000000000000003

c_e_x567_:
+1 x130
-1 x163
+1 x196
= 0.025000000000000001

c_e_x568_:
+1 x131
-1 x164
+1 x197
= 0.025000000000000001

c_e_x569_:
+1 x132
-1 x165
+1 x198
= 0.29999999999999999

